33D32945 STP File, STP Format Version 1.0

SECTION Comments
Name  	"W5"
Creator	"Daisy Jørgensen"
Problem	"3-dimensional Geometric Steiner Minimum Tree"
Remark	"Converted automatically."
END

SECTION Graph
Nodes 506
END

SECTION Coordinates
DDD 1 10.11 0.75 -6.71
DDD 2 12.75 -3.37 -3.19
DDD 3 11.62 -1.92 -7.14
DDD 4 10.77 -2.33 -4.98
DDD 5 11.52 -0.98 -4.44
DDD 6 13.63 -1.96 -4.79
DDD 7 12.94 -3.27 -5.48
DDD 8 13.80 -4.95 -4.53
DDD 9 14.20 -5.17 -2.96
DDD 10 12.75 -5.67 -3.51
DDD 11 13.35 -0.66 -7.24
DDD 12 12.30 0.59 -7.20
DDD 13 13.00 0.06 -5.82
DDD 14 6.60 -2.56 -6.25
DDD 15 10.05 -3.05 -8.90
DDD 16 9.28 -2.28 -7.01
DDD 17 7.82 0.23 -7.13
DDD 18 7.81 -0.40 -9.28
DDD 19 6.38 -0.97 -8.72
DDD 20 7.15 -2.70 -9.91
DDD 21 7.61 -3.10 -8.40
DDD 22 9.83 -1.14 -10.92
DDD 23 9.26 -2.61 -11.64
DDD 24 3.60 0.84 -4.44
DDD 25 6.41 0.49 -5.50
DDD 26 5.15 -1.91 -4.47
DDD 27 5.36 0.43 -2.88
DDD 28 6.66 -0.56 -3.01
DDD 29 3.11 -0.99 -2.35
DDD 30 6.94 -2.06 -1.26
DDD 31 2.22 -2.38 -0.64
DDD 32 6.07 -3.46 0.46
DDD 33 4.04 -3.65 1.90
DDD 34 0.55 -2.20 -4.19
DDD 35 3.23 -2.07 -5.59
DDD 36 1.63 0.30 -5.83
DDD 37 0.18 -1.39 -7.00
DDD 38 1.57 -2.24 -7.07
DDD 39 2.58 -0.38 -8.22
DDD 40 1.11 0.33 -8.26
DDD 41 1.40 -2.28 -9.37
DDD 42 1.85 -0.99 -10.26
DDD 43 -0.79 -1.56 -9.28
DDD 44 -0.33 -1.47 -10.84
DDD 45 -1.08 0.59 -9.14
DDD 46 0.29 0.91 -9.98
DDD 47 -1.09 0.55 -10.78
DDD 48 -2.58 1.52 -3.68
DDD 49 0.03 0.90 -4.48
DDD 50 -1.15 -1.19 -2.85
DDD 51 -0.56 1.45 -1.95
DDD 52 0.31 0.13 -1.54
DDD 53 -2.42 0.58 -0.74
DDD 54 -0.70 -1.66 -0.46
DDD 55 -1.59 -1.28 0.86
DDD 56 -2.33 -1.64 -0.56
DDD 57 -0.75 2.00 0.36
DDD 58 -1.65 1.09 1.37
DDD 59 -0.13 0.63 1.00
DDD 60 -5.95 -1.63 -2.45
DDD 61 -3.23 -1.56 -3.37
DDD 62 -4.79 0.76 -4.18
DDD 63 -5.18 -1.97 -5.02
DDD 64 -6.99 -1.28 -6.22
DDD 65 -7.17 -0.45 -4.82
DDD 66 -6.55 0.29 -6.14
DDD 67 -3.98 -1.56 -6.80
DDD 68 -4.69 -0.11 -7.03
DDD 69 -3.42 -0.24 -6.01
DDD 70 -8.95 1.91 -2.19
DDD 71 -6.14 1.51 -2.65
DDD 72 -7.30 -0.46 -0.86
DDD 73 -7.09 2.36 -0.32
DDD 74 -4.90 1.59 -0.46
DDD 75 -5.26 0.27 0.42
DDD 76 -7.61 0.13 1.44
DDD 77 -7.46 1.67 1.94
DDD 78 -8.72 1.25 0.99
DDD 79 -5.17 1.38 2.35
DDD 80 -4.06 2.21 1.50
DDD 81 -5.57 2.80 1.66
DDD 82 -12.44 -1.21 -0.49
DDD 83 -13.74 -0.62 -2.74
DDD 84 -9.38 -1.03 -1.12
DDD 85 -11.12 0.94 -2.35
DDD 86 -11.29 -1.90 -2.66
DDD 87 -10.76 -0.87 -3.81
DDD 88 -13.51 -0.16 -5.32
DDD 89 -12.61 -1.64 -5.37
DDD 90 -14.40 2.61 -0.15
DDD 91 -11.82 1.89 -0.36
DDD 92 -12.63 1.31 1.86
DDD 93 -13.45 0.06 1.19
DDD 94 -16.71 5.05 1.57
DDD 95 -15.14 1.27 2.60
DDD 96 -16.80 2.69 0.80
DDD 97 -18.43 2.50 2.35
DDD 98 -17.36 2.33 3.57
DDD 99 -17.43 0.29 1.60
DDD 100 -18.63 0.32 2.70
DDD 101 -15.83 0.11 3.32
DDD 102 -16.92 -1.11 3.45
DDD 103 -17.96 -0.10 5.23
DDD 104 -17.19 1.32 4.96
DDD 105 -15.77 -1.04 5.73
DDD 106 -15.23 0.51 5.78
DDD 107 -16.37 0.00 6.84
DDD 108 -13.82 7.41 2.65
DDD 109 -14.92 3.48 3.63
DDD 110 -15.76 6.20 3.63
DDD 111 -14.49 6.45 5.53
DDD 112 -12.97 4.96 6.23
DDD 113 -15.26 4.48 6.84
DDD 114 -16.42 5.39 6.14
DDD 115 -15.95 3.98 5.45
DDD 116 -11.61 3.67 0.63
DDD 117 -12.95 4.38 2.68
DDD 118 -11.92 6.74 1.34
DDD 119 -10.60 6.66 3.18
DDD 120 -9.71 6.05 1.96
DDD 121 -11.02 4.34 3.85
DDD 122 -10.35 3.21 1.91
DDD 123 -8.85 3.87 2.00
DDD 124 -9.33 2.77 3.11
DDD 125 -8.23 4.80 4.11
DDD 126 -9.23 5.94 4.73
DDD 127 -9.30 4.39 5.27
DDD 128 -9.97 6.62 -2.98
DDD 129 -11.07 6.48 -0.70
DDD 130 -10.54 3.82 -1.62
DDD 131 -12.67 3.75 -2.25
DDD 132 -11.92 4.27 -3.60
DDD 133 -13.56 5.75 -3.58
DDD 134 -12.53 6.55 -2.59
DDD 135 -13.65 5.74 -0.70
DDD 136 -14.61 4.80 -1.63
DDD 137 -15.76 6.60 -2.44
DDD 138 -14.62 7.65 -1.92
DDD 139 -16.85 7.14 -0.66
DDD 140 -15.78 6.21 0.15
DDD 141 -15.54 7.82 0.03
DDD 142 -6.47 3.37 -3.37
DDD 143 -8.79 3.69 -2.94
DDD 144 -7.49 6.08 -3.61
DDD 145 -8.18 5.41 -4.92
DDD 146 -3.17 5.44 -6.28
DDD 147 -3.35 2.81 -9.65
DDD 148 -5.53 2.85 -9.91
DDD 149 -5.96 5.32 -5.79
DDD 150 -4.53 3.03 -4.71
DDD 151 -5.62 2.55 -6.78
DDD 152 -4.01 2.32 -6.81
DDD 153 -3.83 4.50 -7.87
DDD 154 -5.46 4.47 -8.02
DDD 155 -0.08 3.03 -4.82
DDD 156 -2.66 3.61 -3.76
DDD 157 -1.29 5.92 -4.82
DDD 158 -0.50 4.64 -2.39
DDD 159 -2.81 4.95 -2.27
DDD 160 0.60 6.63 -3.52
DDD 161 -0.58 7.47 -2.76
DDD 162 0.49 6.59 -1.90
DDD 163 3.54 5.90 -4.88
DDD 164 0.92 5.96 -5.41
DDD 165 2.03 3.32 -5.90
DDD 166 3.15 4.35 -7.78
DDD 167 2.81 6.39 -8.31
DDD 168 0.65 3.35 -7.67
DDD 169 0.56 4.65 -8.66
DDD 170 1.59 3.43 -9.00
DDD 171 7.00 2.24 -4.91
DDD 172 4.10 2.82 -5.30
DDD 173 5.67 5.00 -4.21
DDD 174 5.36 2.45 -2.93
DDD 175 4.00 3.36 -1.53
DDD 176 7.14 4.62 -2.42
DDD 177 6.61 3.74 -1.15
DDD 178 7.45 3.02 -2.35
DDD 179 9.99 5.64 -6.06
DDD 180 7.11 5.23 -5.91
DDD 181 8.60 2.84 -6.59
DDD 182 8.13 5.21 -8.12
DDD 183 7.63 3.69 -8.48
DDD 184 9.90 3.07 -8.86
DDD 185 10.35 4.61 -8.58
DDD 186 9.42 5.36 -10.51
DDD 187 8.45 4.05 -10.64
DDD 188 10.28 2.72 -11.24
DDD 189 11.31 3.96 -10.98
DDD 190 9.95 5.09 -12.75
DDD 191 11.10 4.03 -13.19
DDD 192 9.54 3.57 -13.16
DDD 193 12.89 1.98 -5.98
DDD 194 10.53 2.57 -5.63
DDD 195 12.18 4.92 -5.31
DDD 196 11.06 4.31 -3.21
DDD 197 12.07 3.02 -3.19
DDD 198 12.68 4.53 -3.15
DDD 199 17.05 1.27 -4.97
DDD 200 14.50 4.53 -5.07
DDD 201 15.29 2.25 -6.62
DDD 202 17.43 3.31 -6.65
DDD 203 15.14 4.79 -7.56
DDD 204 16.65 5.35 -7.86
DDD 205 16.17 3.91 -8.46
DDD 206 16.93 4.49 -4.48
DDD 207 17.87 5.25 -5.58
DDD 208 16.29 5.64 -5.45
DDD 209 13.87 1.48 -1.38
DDD 210 18.46 2.31 0.27
DDD 211 17.40 0.46 -0.23
DDD 212 14.82 2.87 -3.42
DDD 213 16.69 0.79 -2.65
DDD 214 16.11 3.00 -0.94
DDD 215 17.40 3.01 -1.95
DDD 216 12.54 -0.55 1.13
DDD 217 15.89 -0.94 -1.57
DDD 218 13.17 -1.22 -1.17
DDD 219 13.92 -3.08 0.29
DDD 220 14.25 -3.17 -1.31
DDD 221 15.41 -2.71 -0.26
DDD 222 12.84 1.83 3.56
DDD 223 15.30 -1.10 5.22
DDD 224 17.40 -1.64 5.52
DDD 225 15.68 -0.23 1.05
DDD 226 14.20 -0.22 3.37
DDD 227 15.81 1.33 4.17
DDD 228 16.42 1.44 2.66
DDD 229 17.81 -0.01 3.69
DDD 230 16.83 -0.98 2.83
DDD 231 10.73 4.05 1.63
DDD 232 14.60 2.31 0.99
DDD 233 13.10 4.24 2.34
DDD 234 13.65 4.10 -0.48
DDD 235 15.66 4.32 0.22
DDD 236 11.92 5.66 0.08
DDD 237 12.95 6.41 1.10
DDD 238 13.24 6.42 -0.51
DDD 239 8.19 1.78 1.37
DDD 240 12.23 1.79 0.01
DDD 241 9.62 2.65 -0.43
DDD 242 9.28 0.48 -1.34
DDD 243 10.63 1.19 -1.93
DDD 244 10.75 0.04 -0.78
DDD 245 7.89 0.98 4.66
DDD 246 7.90 -2.56 6.25
DDD 247 8.85 -0.60 5.98
DDD 248 10.87 0.15 1.70
DDD 249 8.44 -0.56 2.82
DDD 250 10.81 -0.80 4.35
DDD 251 10.70 -1.65 2.96
DDD 252 10.04 -3.02 4.71
DDD 253 8.73 -2.70 3.79
DDD 254 7.84 4.06 5.81
DDD 255 10.89 1.68 3.98
DDD 256 9.61 2.43 6.30
DDD 257 10.99 4.39 6.18
DDD 258 11.49 3.88 4.70
DDD 259 13.08 3.33 6.35
DDD 260 12.47 1.97 5.67
DDD 261 11.02 1.71 7.54
DDD 262 11.65 3.06 8.21
DDD 263 12.73 0.47 8.13
DDD 264 12.96 1.63 9.26
DDD 265 14.17 2.01 6.74
DDD 266 14.71 2.46 8.22
DDD 267 14.85 0.91 7.74
DDD 268 5.50 5.36 3.63
DDD 269 9.60 4.08 3.19
DDD 270 7.85 6.09 3.85
DDD 271 8.51 6.67 1.89
DDD 272 8.96 5.14 1.52
DDD 273 7.41 5.61 1.28
DDD 274 3.27 2.74 4.46
DDD 275 7.18 2.87 2.69
DDD 276 4.44 3.19 2.33
DDD 277 5.68 0.71 3.00
DDD 278 5.84 1.36 1.51
DDD 279 3.53 -0.19 3.74
DDD 280 4.01 1.32 -0.06
DDD 281 1.48 -1.19 3.08
DDD 282 1.96 0.31 -0.72
DDD 283 0.69 -0.94 0.85
DDD 284 3.22 3.54 7.76
DDD 285 6.31 2.22 5.12
DDD 286 4.17 1.51 6.74
DDD 287 5.76 1.87 8.54
DDD 288 6.83 2.33 7.39
DDD 289 7.02 0.01 8.15
DDD 290 6.94 0.21 6.53
DDD 291 4.40 -0.05 7.18
DDD 292 5.13 -1.09 8.20
DDD 293 4.44 -2.03 6.05
DDD 294 5.97 -2.35 6.50
DDD 295 5.88 -1.71 4.23
DDD 296 5.20 -0.29 4.66
DDD 297 6.74 -0.63 5.10
DDD 298 2.42 6.79 7.53
DDD 299 3.00 8.71 6.90
DDD 300 5.95 4.53 6.54
DDD 301 4.54 5.93 8.44
DDD 302 5.88 6.94 6.13
DDD 303 6.54 6.75 7.61
DDD 304 6.10 8.99 7.36
DDD 305 5.01 8.42 8.43
DDD 306 4.54 10.62 5.57
DDD 307 4.80 9.15 4.69
DDD 308 -0.31 6.15 5.43
DDD 309 3.95 5.72 4.99
DDD 310 1.76 7.41 4.92
DDD 311 1.26 5.97 2.90
DDD 312 2.79 5.45 3.16
DDD 313 0.95 8.53 2.66
DDD 314 4.59 6.64 2.23
DDD 315 1.79 10.43 1.50
DDD 316 5.44 8.53 1.07
DDD 317 5.13 10.87 0.76
DDD 318 -1.79 3.98 7.54
DDD 319 1.96 3.96 5.44
DDD 320 -0.74 3.39 5.39
DDD 321 1.21 1.85 5.50
DDD 322 0.99 1.94 7.11
DDD 323 -0.21 1.37 6.15
DDD 324 -1.82 6.30 10.19
DDD 325 2.03 2.66 10.49
DDD 326 1.30 4.20 8.13
DDD 327 -0.71 4.09 10.05
DDD 328 0.90 5.51 11.29
DDD 329 1.89 5.23 10.03
DDD 330 1.71 4.04 13.13
DDD 331 0.71 2.66 12.80
DDD 332 -3.00 9.13 7.95
DDD 333 1.42 11.14 8.16
DDD 334 1.32 9.60 9.72
DDD 335 0.57 6.77 8.19
DDD 336 -0.97 8.75 9.40
DDD 337 -0.43 9.82 7.13
DDD 338 0.68 8.62 7.12
DDD 339 -5.88 6.86 7.17
DDD 340 -5.60 6.59 4.36
DDD 341 -1.69 6.43 6.99
DDD 342 -3.95 7.80 5.95
DDD 343 -3.46 5.03 5.53
DDD 344 -2.54 6.14 4.77
DDD 345 -4.23 4.71 2.66
DDD 346 -3.86 6.34 2.19
DDD 347 -7.65 4.48 8.72
DDD 348 -3.43 5.13 8.16
DDD 349 -5.69 5.62 9.64
DDD 350 -4.88 4.20 9.61
DDD 351 -7.06 0.70 7.72
DDD 352 -5.26 3.30 7.05
DDD 353 -7.99 3.41 6.35
DDD 354 -7.29 1.57 4.84
DDD 355 -7.55 3.60 3.82
DDD 356 -6.33 4.27 4.68
DDD 357 -6.00 3.22 3.47
DDD 358 -4.62 2.46 5.24
DDD 359 -5.20 1.34 6.28
DDD 360 -5.13 1.02 4.68
DDD 361 -11.15 -0.68 6.71
DDD 362 -9.70 2.54 10.10
DDD 363 -11.81 2.42 10.69
DDD 364 -9.69 2.35 7.19
DDD 365 -9.22 0.21 9.01
DDD 366 -11.58 0.26 9.30
DDD 367 -11.66 1.45 8.18
DDD 368 -7.15 -3.39 7.10
DDD 369 -8.34 -1.55 7.85
DDD 370 -9.46 -2.50 5.52
DDD 371 -10.19 -3.27 6.76
DDD 372 -6.79 -5.26 3.85
DDD 373 -9.26 -5.19 5.61
DDD 374 -6.82 -5.90 6.90
DDD 375 -8.02 -7.71 5.09
DDD 376 -6.16 -8.25 6.61
DDD 377 -7.24 -8.14 7.83
DDD 378 -7.42 -9.29 6.68
DDD 379 -9.42 -6.65 7.33
DDD 380 -10.03 -7.15 5.90
DDD 381 -9.58 -8.24 7.03
DDD 382 -4.32 -8.57 3.69
DDD 383 -4.91 -6.74 5.89
DDD 384 -4.37 -5.44 3.39
DDD 385 -2.12 -5.88 3.84
DDD 386 -2.54 -6.72 5.17
DDD 387 -3.53 -5.26 7.32
DDD 388 -3.11 -2.84 8.07
DDD 389 -1.58 -3.61 3.02
DDD 390 -1.13 0.12 4.76
DDD 391 -2.06 -0.66 6.81
DDD 392 -0.89 -1.32 2.90
DDD 393 -2.36 -7.39 -0.62
DDD 394 -3.74 -6.41 1.47
DDD 395 -3.81 -9.31 1.46
DDD 396 -5.04 -9.30 -0.55
DDD 397 -5.84 -7.43 -1.47
DDD 398 -7.15 -8.43 0.33
DDD 399 -6.40 -9.51 1.30
DDD 400 -6.30 -7.92 1.63
DDD 401 -1.05 -11.64 -1.71
DDD 402 -2.03 -10.26 0.66
DDD 403 -0.33 -8.63 -1.03
DDD 404 1.43 -9.97 -0.38
DDD 405 0.43 -10.97 0.43
DDD 406 -1.01 -9.70 2.30
DDD 407 2.67 -8.47 0.90
DDD 408 -0.69 -8.41 4.28
DDD 409 3.00 -7.18 2.88
DDD 410 1.12 -6.00 4.70
DDD 411 1.01 -10.40 -5.99
DDD 412 -3.23 -10.90 -6.74
DDD 413 -1.16 -11.55 -7.06
DDD 414 -0.28 -8.96 -3.18
DDD 415 -1.10 -11.58 -4.12
DDD 416 -1.05 -9.21 -5.71
DDD 417 -2.37 -9.63 -4.84
DDD 418 3.69 -12.13 -7.01
DDD 419 1.15 -14.15 -3.93
DDD 420 2.72 -15.49 -3.18
DDD 421 1.18 -12.26 -3.45
DDD 422 3.43 -11.41 -4.66
DDD 423 3.77 -13.01 -3.15
DDD 424 4.11 -13.78 -4.54
DDD 425 2.41 -12.56 -10.06
DDD 426 1.02 -13.52 -6.05
DDD 427 2.27 -14.31 -8.32
DDD 428 0.15 -15.10 -7.78
DDD 429 -0.50 -13.62 -8.04
DDD 430 0.11 -14.47 -9.29
DDD 431 2.23 -7.89 -9.21
DDD 432 0.68 -11.24 -7.77
DDD 433 1.73 -10.28 -10.30
DDD 434 -0.53 -9.20 -8.90
DDD 435 -1.87 -10.39 -10.13
DDD 436 -0.46 -8.60 -11.58
DDD 437 -0.47 -7.56 -10.33
DDD 438 0.95 -8.14 -10.89
DDD 439 3.34 -6.13 -6.25
DDD 440 2.55 -10.30 -7.20
DDD 441 3.75 -8.89 -5.92
DDD 442 4.54 -7.80 -8.44
DDD 443 5.33 -8.94 -7.58
DDD 444 5.11 -6.18 -6.85
DDD 445 6.47 -6.92 -7.36
DDD 446 6.59 -8.17 -5.41
DDD 447 5.10 -7.68 -4.94
DDD 448 7.47 -6.05 -5.05
DDD 449 6.65 -6.48 -3.70
DDD 450 4.92 -5.20 -5.33
DDD 451 5.45 -4.71 -3.86
DDD 452 6.26 -4.28 -5.21
DDD 453 -0.37 -7.26 -4.25
DDD 454 0.95 -8.15 -6.61
DDD 455 1.07 -5.28 -6.26
DDD 456 -1.16 -5.23 -6.95
DDD 457 -2.23 -7.00 -6.41
DDD 458 -0.88 -5.86 -9.20
DDD 459 0.53 -5.23 -8.66
DDD 460 0.36 -6.85 -8.79
DDD 461 -1.79 -2.96 -3.04
DDD 462 0.30 -4.18 -4.49
DDD 463 -0.70 -5.86 -2.34
DDD 464 0.61 -3.36 -1.95
DDD 465 1.44 -4.76 -2.00
DDD 466 0.94 -2.67 0.29
DDD 467 -0.42 -6.48 -0.49
DDD 468 0.51 -3.00 2.61
DDD 469 -0.84 -6.80 1.82
DDD 470 -0.38 -5.07 3.38
DDD 471 -4.09 -4.89 0.31
DDD 472 -2.77 -5.65 -1.72
DDD 473 -4.01 -3.07 -2.15
DDD 474 -6.04 -4.20 -2.72
DDD 475 -6.09 -6.28 -2.30
DDD 476 -4.27 -5.11 -4.72
DDD 477 -5.56 -4.11 -4.88
DDD 478 -4.13 -3.52 -4.35
DDD 479 -8.31 -2.48 0.20
DDD 480 -6.11 -2.79 -0.89
DDD 481 -6.10 -4.26 1.58
DDD 482 -5.83 -1.39 1.53
DDD 483 -5.99 -1.51 3.91
DDD 484 -7.38 -2.00 3.21
DDD 485 -6.33 -3.10 3.80
DDD 486 -4.11 -3.03 3.08
DDD 487 -3.85 -3.02 1.47
DDD 488 -3.76 -1.63 2.31
DDD 489 -9.79 -3.39 4.26
DDD 490 -8.08 -4.55 2.57
DDD 491 -10.32 -3.32 1.19
DDD 492 -11.49 -5.20 1.31
DDD 493 -9.77 -6.12 3.36
DDD 494 -9.17 -6.77 1.32
DDD 495 -10.28 -6.62 0.14
DDD 496 -9.09 -5.50 0.29
DDD 497 -14.00 -3.07 5.79
DDD 498 -12.48 2.25 6.05
DDD 499 -13.82 2.03 4.33
DDD 500 -12.24 -2.74 2.38
DDD 501 -11.75 -2.40 5.21
DDD 502 -12.78 -0.41 3.43
DDD 503 -11.40 -0.32 4.30
DDD 504 -12.65 -0.18 6.29
DDD 505 -14.03 -0.31 5.44
DDD 506 -14.47 -2.75 3.67
END

EOF
